certificates/rado_a13_c186_N35.drat
-31 -32 -35 0
14 31 -35 0
-32 -34 -35 0
-14 -34 -35 0
-34 -35 0
d -32 -34 -35 0
14 32 -35 0
32 -35 0
d 14 32 -35 0
13 -35 0
-32 -35 0
d -31 -32 -35 0
-35 0
-14 0
10 0
18 0
31 0
-13 0
9 0
17 0
30 0
16 0
0
